8 
1 153 510 706 966 581 455 70 
153 1 422 664 997 598 507 197 
510 422 1 289 744 390 437 491 
706 664 289 1 491 265 410 664 
966 997 744 491 1 400 514 902 
581 598 390 265 400 1 168 522 
455 507 437 410 514 168 1 389 
70 197 491 664 902 522 389 1 